p tw 196 38221 2 
1 3 
1 4 
1 5 
1 6 
1 7 
1 8 
1 9 
1 10 
1 11 
1 12 
1 13 
1 14 
1 15 
1 16 
1 29 
1 33 
1 43 
1 52 
1 57 
1 69 
1 71 
1 77 
1 85 
1 95 
1 99 
1 104 
1 113 
1 121 
1 127 
1 134 
1 141 
1 152 
1 155 
1 168 
1 169 
1 172 
1 183 
1 185 
2 3 
2 4 
2 5 
2 6 
2 7 
2 8 
2 9 
2 10 
2 11 
2 12 
2 13 
2 14 
2 16 
2 22 
2 30 
2 34 
2 44 
2 46 
2 58 
2 68 
2 71 
2 72 
2 86 
2 93 
2 100 
2 109 
2 114 
2 122 
2 128 
2 133 
2 142 
2 145 
2 156 
2 167 
2 170 
2 171 
2 184 
2 196 
3 4 
3 5 
3 6 
3 7 
3 8 
3 9 
3 10 
3 11 
3 12 
3 13 
3 14 
3 17 
3 27 
3 31 
3 42 
3 45 
3 49 
3 59 
3 64 
3 73 
3 74 
3 87 
3 90 
3 99 
3 101 
3 115 
3 124 
3 129 
3 131 
3 142 
3 143 
3 157 
3 165 
3 171 
3 178 
3 185 
3 191 
4 5 
4 6 
4 7 
4 8 
4 9 
4 10 
4 11 
4 12 
4 13 
4 14 
4 18 
4 23 
4 30 
4 32 
4 46 
4 53 
4 60 
4 70 
4 73 
4 74 
4 88 
4 96 
4 102 
4 103 
4 116 
4 119 
4 130 
4 139 
4 144 
4 146 
4 158 
4 164 
4 172 
4 176 
4 183 
4 186 
5 6 
5 7 
5 8 
5 9 
5 10 
5 11 
5 12 
5 13 
5 14 
5 19 
5 25 
5 33 
5 35 
5 47 
5 54 
5 60 
5 61 
5 75 
5 79 
5 86 
5 89 
5 103 
5 112 
5 117 
5 120 
5 129 
5 131 
5 141 
5 145 
5 159 
5 160 
5 173 
5 181 
5 187 
5 192 
6 7 
6 8 
6 9 
6 10 
6 11 
6 12 
6 13 
6 14 
6 20 
6 24 
6 34 
6 37 
6 45 
6 48 
6 58 
6 62 
6 76 
6 81 
6 90 
6 98 
6 104 
6 111 
6 116 
6 118 
6 127 
6 132 
6 146 
6 148 
6 160 
6 166 
6 174 
6 175 
6 187 
6 188 
7 8 
7 9 
7 10 
7 11 
7 12 
7 13 
7 14 
7 20 
7 21 
7 35 
7 41 
7 47 
7 49 
7 59 
7 63 
7 77 
7 80 
7 85 
7 91 
7 102 
7 105 
7 119 
7 126 
7 133 
7 138 
7 147 
7 151 
7 156 
7 161 
7 175 
7 177 
7 189 
7 190 
8 9 
8 10 
8 11 
8 12 
8 13 
8 14 
8 18 
8 22 
8 36 
8 38 
8 43 
8 50 
8 61 
8 64 
8 78 
8 82 
8 87 
8 92 
8 100 
8 106 
8 118 
8 120 
8 134 
8 140 
8 148 
8 153 
8 162 
8 163 
8 176 
8 179 
8 189 
8 190 
9 10 
9 11 
9 12 
9 13 
9 14 
9 23 
9 28 
9 31 
9 37 
9 44 
9 51 
9 57 
9 65 
9 78 
9 79 
9 93 
9 97 
9 107 
9 110 
9 121 
9 123 
9 135 
9 136 
9 147 
9 149 
9 158 
9 163 
9 173 
9 177 
9 188 
9 191 
10 11 
10 12 
10 13 
10 14 
10 21 
10 24 
10 36 
10 38 
10 51 
10 52 
10 62 
10 66 
10 75 
10 80 
10 88 
10 94 
10 101 
10 108 
10 114 
10 122 
10 136 
10 137 
10 150 
10 154 
10 155 
10 164 
10 178 
10 180 
10 192 
10 195 
11 12 
11 13 
11 14 
11 15 
11 25 
11 32 
11 39 
11 50 
11 53 
11 63 
11 67 
11 81 
11 84 
11 89 
11 95 
11 107 
11 109 
11 123 
11 125 
11 128 
11 137 
11 150 
11 151 
11 157 
11 165 
11 174 
11 179 
11 193 
11 194 
12 13 
12 14 
12 19 
12 26 
12 29 
12 40 
12 54 
12 55 
12 67 
12 68 
12 72 
12 82 
12 94 
12 96 
12 106 
12 110 
12 115 
12 124 
12 132 
12 138 
12 149 
12 152 
12 161 
12 166 
12 180 
12 182 
12 186 
12 194 
13 14 
13 17 
13 27 
13 40 
13 41 
13 55 
13 56 
13 66 
13 69 
13 76 
13 83 
13 92 
13 97 
13 105 
13 111 
13 113 
13 125 
13 135 
13 139 
13 144 
13 153 
13 159 
13 167 
13 170 
13 181 
13 193 
13 195 
14 26 
14 28 
14 39 
14 42 
14 48 
14 56 
14 65 
14 70 
14 83 
14 84 
14 91 
14 98 
14 108 
14 112 
14 117 
14 126 
14 130 
14 140 
14 143 
14 154 
14 162 
14 168 
14 169 
14 182 
14 184 
14 196 
15 16 
15 17 
15 18 
15 19 
15 20 
15 21 
15 22 
15 23 
15 24 
15 25 
15 26 
15 27 
15 28 
15 29 
15 32 
15 43 
15 50 
15 57 
15 63 
15 71 
15 84 
15 85 
15 89 
15 99 
15 107 
15 113 
15 125 
15 127 
15 128 
15 141 
15 150 
15 155 
15 157 
15 169 
15 174 
15 183 
15 194 
16 17 
16 18 
16 19 
16 20 
16 21 
16 22 
16 23 
16 24 
16 25 
16 26 
16 27 
16 28 
16 30 
16 33 
16 44 
16 52 
16 58 
16 69 
16 72 
16 77 
16 86 
16 95 
16 100 
16 104 
16 114 
16 121 
16 128 
16 134 
16 142 
16 152 
16 156 
16 168 
16 170 
16 172 
16 184 
16 185 
17 18 
17 19 
17 20 
17 21 
17 22 
17 23 
17 24 
17 25 
17 26 
17 27 
17 28 
17 31 
17 40 
17 45 
17 56 
17 59 
17 66 
17 73 
17 76 
17 87 
17 92 
17 101 
17 105 
17 113 
17 115 
17 129 
17 135 
17 143 
17 144 
17 157 
17 159 
17 170 
17 171 
17 185 
17 193 
18 19 
18 20 
18 21 
18 22 
18 23 
18 24 
18 25 
18 26 
18 27 
18 28 
18 32 
18 38 
18 43 
18 46 
18 60 
18 61 
18 74 
18 82 
18 87 
18 88 
18 100 
18 102 
18 116 
18 118 
18 130 
18 140 
18 144 
18 153 
18 158 
18 163 
18 172 
18 179 
18 186 
18 189 
19 20 
19 21 
19 22 
19 23 
19 24 
19 25 
19 26 
19 27 
19 28 
19 29 
19 33 
19 47 
19 55 
19 61 
19 67 
19 72 
19 75 
19 89 
19 94 
19 103 
19 106 
19 115 
19 117 
19 131 
19 132 
19 145 
19 149 
19 159 
19 161 
19 173 
19 182 
19 186 
19 187 
20 21 
20 22 
20 23 
20 24 
20 25 
20 26 
20 27 
20 28 
20 34 
20 41 
20 47 
20 48 
20 59 
20 62 
20 76 
20 80 
20 85 
20 90 
20 102 
20 104 
20 118 
20 126 
20 132 
20 138 
20 146 
20 151 
20 156 
20 160 
20 174 
20 177 
20 188 
20 190 
21 22 
21 23 
21 24 
21 25 
21 26 
21 27 
21 28 
21 35 
21 36 
21 49 
21 51 
21 62 
21 63 
21 75 
21 77 
21 88 
21 91 
21 101 
21 105 
21 114 
21 119 
21 133 
21 137 
21 147 
21 154 
21 155 
21 161 
21 175 
21 180 
21 189 
21 195 
22 23 
22 24 
22 25 
22 26 
22 27 
22 28 
22 34 
22 36 
22 46 
22 50 
22 64 
22 68 
22 71 
22 78 
22 92 
22 93 
22 106 
22 109 
22 120 
22 122 
22 133 
22 134 
22 145 
22 148 
22 162 
22 167 
22 171 
22 176 
22 190 
22 196 
23 24 
23 25 
23 26 
23 27 
23 28 
23 30 
23 37 
23 51 
23 53 
23 65 
23 70 
23 73 
23 79 
23 93 
23 96 
23 103 
23 107 
23 119 
23 121 
23 135 
23 139 
23 146 
23 149 
23 163 
23 164 
23 176 
23 177 
23 183 
23 191 
24 25 
24 26 
24 27 
24 28 
24 37 
24 38 
24 45 
24 52 
24 58 
24 66 
24 80 
24 81 
24 94 
24 98 
24 108 
24 111 
24 116 
24 122 
24 127 
24 136 
24 148 
24 150 
24 164 
24 166 
24 175 
24 178 
24 187 
24 192 
25 26 
25 27 
25 28 
25 35 
25 39 
25 53 
25 54 
25 60 
25 67 
25 79 
25 81 
25 86 
25 95 
25 109 
25 112 
25 120 
25 123 
25 129 
25 137 
25 141 
25 151 
25 160 
25 165 
25 179 
25 181 
25 192 
25 193 
26 27 
26 28 
26 39 
26 40 
26 48 
26 54 
26 65 
26 68 
26 82 
26 83 
26 91 
26 96 
26 108 
26 110 
26 117 
26 124 
26 130 
26 138 
26 143 
26 152 
26 162 
26 166 
26 169 
26 180 
26 184 
26 194 
27 28 
27 41 
27 42 
27 49 
27 55 
27 64 
27 69 
27 74 
27 83 
27 90 
27 97 
27 99 
27 111 
27 124 
27 125 
27 131 
27 139 
27 142 
27 153 
27 165 
27 167 
27 178 
27 181 
27 191 
27 195 
28 31 
28 42 
28 44 
28 56 
28 57 
28 70 
28 78 
28 84 
28 97 
28 98 
28 110 
28 112 
28 123 
28 126 
28 136 
28 140 
28 147 
28 154 
28 158 
28 168 
28 173 
28 182 
28 188 
28 196 
29 30 
29 31 
29 32 
29 33 
29 34 
29 35 
29 36 
29 37 
29 38 
29 39 
29 40 
29 41 
29 42 
29 43 
29 55 
29 57 
29 67 
29 71 
29 72 
29 85 
29 94 
29 99 
29 106 
29 113 
29 115 
29 127 
29 132 
29 141 
29 149 
29 155 
29 161 
29 169 
29 182 
29 183 
29 186 
30 31 
30 32 
30 33 
30 34 
30 35 
30 36 
30 37 
30 38 
30 39 
30 40 
30 41 
30 42 
30 44 
30 53 
30 58 
30 70 
30 72 
30 73 
30 86 
30 96 
30 100 
30 103 
30 114 
30 119 
30 128 
30 139 
30 142 
30 146 
30 156 
30 164 
30 170 
30 176 
30 183 
30 184 
31 32 
31 33 
31 34 
31 35 
31 36 
31 37 
31 38 
31 39 
31 40 
31 41 
31 42 
31 44 
31 45 
31 57 
31 59 
31 73 
31 78 
31 87 
31 97 
31 101 
31 110 
31 115 
31 123 
31 129 
31 136 
31 143 
31 147 
31 157 
31 158 
31 171 
31 173 
31 185 
31 188 
32 33 
32 34 
32 35 
32 36 
32 37 
32 38 
32 39 
32 40 
32 41 
32 42 
32 46 
32 50 
32 60 
32 63 
32 74 
32 84 
32 88 
32 89 
32 102 
32 107 
32 116 
32 125 
32 128 
32 130 
32 144 
32 150 
32 157 
32 158 
32 172 
32 174 
32 186 
32 194 
33 34 
33 35 
33 36 
33 37 
33 38 
33 39 
33 40 
33 41 
33 42 
33 47 
33 52 
33 61 
33 69 
33 75 
33 77 
33 89 
33 95 
33 103 
33 104 
33 117 
33 121 
33 131 
33 134 
33 145 
33 152 
33 159 
33 168 
33 172 
33 173 
33 185 
33 187 
34 35 
34 36 
34 37 
34 38 
34 39 
34 40 
34 41 
34 42 
34 46 
34 48 
34 62 
34 68 
34 71 
34 76 
34 90 
34 93 
34 104 
34 109 
34 118 
34 122 
34 132 
34 133 
34 145 
34 146 
34 160 
34 167 
34 171 
34 174 
34 188 
34 196 
35 36 
35 37 
35 38 
35 39 
35 40 
35 41 
35 42 
35 49 
35 54 
35 60 
35 63 
35 77 
35 79 
35 86 
35 91 
35 105 
35 112 
35 119 
35 120 
35 129 
35 133 
35 141 
35 147 
35 160 
35 161 
35 175 
35 181 
35 189 
35 192 
36 37 
36 38 
36 39 
36 40 
36 41 
36 42 
36 50 
36 51 
36 62 
36 64 
36 75 
36 78 
36 88 
36 92 
36 101 
36 106 
36 114 
36 120 
36 134 
36 137 
36 148 
36 154 
36 155 
36 162 
36 176 
36 180 
36 190 
36 195 
37 38 
37 39 
37 40 
37 41 
37 42 
37 45 
37 51 
37 58 
37 65 
37 79 
37 81 
37 93 
37 98 
37 107 
37 111 
37 116 
37 121 
37 127 
37 135 
37 148 
37 149 
37 163 
37 166 
37 175 
37 177 
37 187 
37 191 
38 39 
38 40 
38 41 
38 42 
38 43 
38 52 
38 61 
38 66 
38 80 
38 82 
38 87 
38 94 
38 100 
38 108 
38 118 
38 122 
38 136 
38 140 
38 150 
38 153 
38 163 
38 164 
38 178 
38 179 
38 189 
38 192 
39 40 
39 41 
39 42 
39 48 
39 53 
39 65 
39 67 
39 81 
39 83 
39 91 
39 95 
39 108 
39 109 
39 117 
39 123 
39 130 
39 137 
39 143 
39 151 
39 162 
39 165 
39 169 
39 179 
39 184 
39 193 
40 41 
40 42 
40 54 
40 56 
40 66 
40 68 
40 76 
40 82 
40 92 
40 96 
40 105 
40 110 
40 113 
40 124 
40 135 
40 138 
40 144 
40 152 
40 159 
40 166 
40 170 
40 180 
40 193 
40 194 
41 42 
41 47 
41 55 
41 59 
41 69 
41 80 
41 83 
41 85 
41 97 
41 102 
41 111 
41 125 
41 126 
41 138 
41 139 
41 151 
41 153 
41 156 
41 167 
41 177 
41 181 
41 190 
41 195 
42 49 
42 56 
42 64 
42 70 
42 74 
42 84 
42 90 
42 98 
42 99 
42 112 
42 124 
42 126 
42 131 
42 140 
42 142 
42 154 
42 165 
42 168 
42 178 
42 182 
42 191 
42 196 
43 44 
43 45 
43 46 
43 47 
43 48 
43 49 
43 50 
43 51 
43 52 
43 53 
43 54 
43 55 
43 56 
43 57 
43 61 
43 71 
43 82 
43 85 
43 87 
43 99 
43 100 
43 113 
43 118 
43 127 
43 140 
43 141 
43 153 
43 155 
43 163 
43 169 
43 179 
43 183 
43 189 
44 45 
44 46 
44 47 
44 48 
44 49 
44 50 
44 51 
44 52 
44 53 
44 54 
44 55 
44 56 
44 57 
44 58 
44 72 
44 78 
44 86 
44 97 
44 100 
44 110 
44 114 
44 123 
44 128 
44 136 
44 142 
44 147 
44 156 
44 158 
44 170 
44 173 
44 184 
44 188 
45 46 
45 47 
45 48 
45 49 
45 50 
45 51 
45 52 
45 53 
45 54 
45 55 
45 56 
45 58 
45 59 
45 73 
45 81 
45 87 
45 98 
45 101 
45 111 
45 115 
45 116 
45 127 
45 129 
45 143 
45 148 
45 157 
45 166 
45 171 
45 175 
45 185 
45 187 
46 47 
46 48 
46 49 
46 50 
46 51 
46 52 
46 53 
46 54 
46 55 
46 56 
46 60 
46 68 
46 71 
46 74 
46 88 
46 93 
46 102 
46 109 
46 116 
46 122 
46 130 
46 133 
46 144 
46 145 
46 158 
46 167 
46 171 
46 172 
46 186 
46 196 
47 48 
47 49 
47 50 
47 51 
47 52 
47 53 
47 54 
47 55 
47 56 
47 59 
47 61 
47 75 
47 80 
47 85 
47 89 
47 102 
47 103 
47 117 
47 126 
47 131 
47 138 
47 145 
47 151 
47 156 
47 159 
47 173 
47 177 
47 187 
47 190 
48 49 
48 50 
48 51 
48 52 
48 53 
48 54 
48 55 
48 56 
48 62 
48 65 
48 76 
48 83 
48 90 
48 91 
48 104 
48 108 
48 117 
48 118 
48 130 
48 132 
48 143 
48 146 
48 160 
48 162 
48 169 
48 174 
48 184 
48 188 
49 50 
49 51 
49 52 
49 53 
49 54 
49 55 
49 56 
49 63 
49 64 
49 74 
49 77 
49 90 
49 91 
49 99 
49 105 
49 119 
49 124 
49 131 
49 133 
49 142 
49 147 
49 161 
49 165 
49 175 
49 178 
49 189 
49 191 
50 51 
50 52 
50 53 
50 54 
50 55 
50 56 
50 63 
50 64 
50 78 
50 84 
50 89 
50 92 
50 106 
50 107 
50 120 
50 125 
50 128 
50 134 
50 148 
50 150 
50 157 
50 162 
50 174 
50 176 
50 190 
50 194 
51 52 
51 53 
51 54 
51 55 
51 56 
51 62 
51 65 
51 75 
51 79 
51 88 
51 93 
51 101 
51 107 
51 114 
51 121 
51 135 
51 137 
51 149 
51 154 
51 155 
51 163 
51 177 
51 180 
51 191 
51 195 
52 53 
52 54 
52 55 
52 56 
52 66 
52 69 
52 77 
52 80 
52 94 
52 95 
52 104 
52 108 
52 121 
52 122 
52 134 
52 136 
52 150 
52 152 
52 164 
52 168 
52 172 
52 178 
52 185 
52 192 
53 54 
53 55 
53 56 
53 67 
53 70 
53 73 
53 81 
53 95 
53 96 
53 103 
53 109 
53 119 
53 123 
53 137 
53 139 
53 146 
53 151 
53 164 
53 165 
53 176 
53 179 
53 183 
53 193 
54 55 
54 56 
54 60 
54 68 
54 79 
54 82 
54 86 
54 96 
54 110 
54 112 
54 120 
54 124 
54 129 
54 138 
54 141 
54 152 
54 160 
54 166 
54 180 
54 181 
54 192 
54 194 
55 56 
55 67 
55 69 
55 72 
55 83 
55 94 
55 97 
55 106 
55 111 
55 115 
55 125 
55 132 
55 139 
55 149 
55 153 
55 161 
55 167 
55 181 
55 182 
55 186 
55 195 
56 66 
56 70 
56 76 
56 84 
56 92 
56 98 
56 105 
56 112 
56 113 
56 126 
56 135 
56 140 
56 144 
56 154 
56 159 
56 168 
56 170 
56 182 
56 193 
56 196 
57 58 
57 59 
57 60 
57 61 
57 62 
57 63 
57 64 
57 65 
57 66 
57 67 
57 68 
57 69 
57 70 
57 71 
57 78 
57 85 
57 97 
57 99 
57 110 
57 113 
57 123 
57 127 
57 136 
57 141 
57 147 
57 155 
57 158 
57 169 
57 173 
57 183 
57 188 
58 59 
58 60 
58 61 
58 62 
58 63 
58 64 
58 65 
58 66 
58 67 
58 68 
58 69 
58 70 
58 72 
58 81 
58 86 
58 98 
58 100 
58 111 
58 114 
58 116 
58 127 
58 128 
58 142 
58 148 
58 156 
58 166 
58 170 
58 175 
58 184 
58 187 
59 60 
59 61 
59 62 
59 63 
59 64 
59 65 
59 66 
59 67 
59 68 
59 69 
59 70 
59 73 
59 80 
59 85 
59 87 
59 101 
59 102 
59 115 
59 126 
59 129 
59 138 
59 143 
59 151 
59 156 
59 157 
59 171 
59 177 
59 185 
59 190 
60 61 
60 62 
60 63 
60 64 
60 65 
60 66 
60 67 
60 68 
60 69 
60 70 
60 74 
60 79 
60 86 
60 88 
60 102 
60 112 
60 116 
60 120 
60 129 
60 130 
60 141 
60 144 
60 158 
60 160 
60 172 
60 181 
60 186 
60 192 
61 62 
61 63 
61 64 
61 65 
61 66 
61 67 
61 68 
61 69 
61 70 
61 75 
61 82 
61 87 
61 89 
61 100 
61 103 
61 117 
61 118 
61 131 
61 140 
61 145 
61 153 
61 159 
61 163 
61 173 
61 179 
61 187 
61 189 
62 63 
62 64 
62 65 
62 66 
62 67 
62 68 
62 69 
62 70 
62 75 
62 76 
62 88 
62 90 
62 101 
62 104 
62 114 
62 118 
62 132 
62 137 
62 146 
62 154 
62 155 
62 160 
62 174 
62 180 
62 188 
62 195 
63 64 
63 65 
63 66 
63 67 
63 68 
63 69 
63 70 
63 77 
63 84 
63 89 
63 91 
63 105 
63 107 
63 119 
63 125 
63 128 
63 133 
63 147 
63 150 
63 157 
63 161 
63 174 
63 175 
63 189 
63 194 
64 65 
64 66 
64 67 
64 68 
64 69 
64 70 
64 74 
64 78 
64 90 
64 92 
64 99 
64 106 
64 120 
64 124 
64 131 
64 134 
64 142 
64 148 
64 162 
64 165 
64 176 
64 178 
64 190 
64 191 
65 66 
65 67 
65 68 
65 69 
65 70 
65 79 
65 83 
65 91 
65 93 
65 107 
65 108 
65 117 
65 121 
65 130 
65 135 
65 143 
65 149 
65 162 
65 163 
65 169 
65 177 
65 184 
65 191 
66 67 
66 68 
66 69 
66 70 
66 76 
66 80 
66 92 
66 94 
66 105 
66 108 
66 113 
66 122 
66 135 
66 136 
66 144 
66 150 
66 159 
66 164 
66 170 
66 178 
66 192 
66 193 
67 68 
67 69 
67 70 
67 72 
67 81 
67 94 
67 95 
67 106 
67 109 
67 115 
67 123 
67 132 
67 137 
67 149 
67 151 
67 161 
67 165 
67 179 
67 182 
67 186 
67 193 
68 69 
68 70 
68 71 
68 82 
68 93 
68 96 
68 109 
68 110 
68 122 
68 124 
68 133 
68 138 
68 145 
68 152 
68 166 
68 167 
68 171 
68 180 
68 194 
68 196 
69 70 
69 77 
69 83 
69 95 
69 97 
69 104 
69 111 
69 121 
69 125 
69 134 
69 139 
69 152 
69 153 
69 167 
69 168 
69 172 
69 181 
69 185 
69 195 
70 73 
70 84 
70 96 
70 98 
70 103 
70 112 
70 119 
70 126 
70 139 
70 140 
70 146 
70 154 
70 164 
70 168 
70 176 
70 182 
70 183 
70 196 
71 72 
71 73 
71 74 
71 75 
71 76 
71 77 
71 78 
71 79 
71 80 
71 81 
71 82 
71 83 
71 84 
71 85 
71 93 
71 99 
71 109 
71 113 
71 122 
71 127 
71 133 
71 141 
71 145 
71 155 
71 167 
71 169 
71 171 
71 183 
71 196 
72 73 
72 74 
72 75 
72 76 
72 77 
72 78 
72 79 
72 80 
72 81 
72 82 
72 83 
72 84 
72 86 
72 94 
72 100 
72 106 
72 114 
72 115 
72 128 
72 132 
72 142 
72 149 
72 156 
72 161 
72 170 
72 182 
72 184 
72 186 
73 74 
73 75 
73 76 
73 77 
73 78 
73 79 
73 80 
73 81 
73 82 
73 83 
73 84 
73 87 
73 96 
73 101 
73 103 
73 115 
73 119 
73 129 
73 139 
73 143 
73 146 
73 157 
73 164 
73 171 
73 176 
73 183 
73 185 
74 75 
74 76 
74 77 
74 78 
74 79 
74 80 
74 81 
74 82 
74 83 
74 84 
74 88 
74 90 
74 99 
74 102 
74 116 
74 124 
74 130 
74 131 
74 142 
74 144 
74 158 
74 165 
74 172 
74 178 
74 186 
74 191 
75 76 
75 77 
75 78 
75 79 
75 80 
75 81 
75 82 
75 83 
75 84 
75 88 
75 89 
75 101 
75 103 
75 114 
75 117 
75 131 
75 137 
75 145 
75 154 
75 155 
75 159 
75 173 
75 180 
75 187 
75 195 
76 77 
76 78 
76 79 
76 80 
76 81 
76 82 
76 83 
76 84 
76 90 
76 92 
76 104 
76 105 
76 113 
76 118 
76 132 
76 135 
76 144 
76 146 
76 159 
76 160 
76 170 
76 174 
76 188 
76 193 
77 78 
77 79 
77 80 
77 81 
77 82 
77 83 
77 84 
77 91 
77 95 
77 104 
77 105 
77 119 
77 121 
77 133 
77 134 
77 147 
77 152 
77 161 
77 168 
77 172 
77 175 
77 185 
77 189 
78 79 
78 80 
78 81 
78 82 
78 83 
78 84 
78 92 
78 97 
78 106 
78 110 
78 120 
78 123 
78 134 
78 136 
78 147 
78 148 
78 158 
78 162 
78 173 
78 176 
78 188 
78 190 
79 80 
79 81 
79 82 
79 83 
79 84 
79 86 
79 93 
79 107 
79 112 
79 120 
79 121 
79 129 
79 135 
79 141 
79 149 
79 160 
79 163 
79 177 
79 181 
79 191 
79 192 
80 81 
80 82 
80 83 
80 84 
80 85 
80 94 
80 102 
80 108 
80 122 
80 126 
80 136 
80 138 
80 150 
80 151 
80 156 
80 164 
80 177 
80 178 
80 190 
80 192 
81 82 
81 83 
81 84 
81 95 
81 98 
81 109 
81 111 
81 116 
81 123 
81 127 
81 137 
81 148 
81 151 
81 165 
81 166 
81 175 
81 179 
81 187 
81 193 
82 83 
82 84 
82 87 
82 96 
82 100 
82 110 
82 118 
82 124 
82 138 
82 140 
82 152 
82 153 
82 163 
82 166 
82 179 
82 180 
82 189 
82 194 
83 84 
83 91 
83 97 
83 108 
83 111 
83 117 
83 125 
83 130 
83 139 
83 143 
83 153 
83 162 
83 167 
83 169 
83 181 
83 184 
83 195 
84 89 
84 98 
84 107 
84 112 
84 125 
84 126 
84 128 
84 140 
84 150 
84 154 
84 157 
84 168 
84 174 
84 182 
84 194 
84 196 
85 86 
85 87 
85 88 
85 89 
85 90 
85 91 
85 92 
85 93 
85 94 
85 95 
85 96 
85 97 
85 98 
85 99 
85 102 
85 113 
85 126 
85 127 
85 138 
85 141 
85 151 
85 155 
85 156 
85 169 
85 177 
85 183 
85 190 
86 87 
86 88 
86 89 
86 90 
86 91 
86 92 
86 93 
86 94 
86 95 
86 96 
86 97 
86 98 
86 100 
86 112 
86 114 
86 120 
86 128 
86 129 
86 141 
86 142 
86 156 
86 160 
86 170 
86 181 
86 184 
86 192 
87 88 
87 89 
87 90 
87 91 
87 92 
87 93 
87 94 
87 95 
87 96 
87 97 
87 98 
87 100 
87 101 
87 115 
87 118 
87 129 
87 140 
87 143 
87 153 
87 157 
87 163 
87 171 
87 179 
87 185 
87 189 
88 89 
88 90 
88 91 
88 92 
88 93 
88 94 
88 95 
88 96 
88 97 
88 98 
88 101 
88 102 
88 114 
88 116 
88 130 
88 137 
88 144 
88 154 
88 155 
88 158 
88 172 
88 180 
88 186 
88 195 
89 90 
89 91 
89 92 
89 93 
89 94 
89 95 
89 96 
89 97 
89 98 
89 103 
89 107 
89 117 
89 125 
89 128 
89 131 
89 145 
89 150 
89 157 
89 159 
89 173 
89 174 
89 187 
89 194 
90 91 
90 92 
90 93 
90 94 
90 95 
90 96 
90 97 
90 98 
90 99 
90 104 
90 118 
90 124 
90 131 
90 132 
90 142 
90 146 
90 160 
90 165 
90 174 
90 178 
90 188 
90 191 
91 92 
91 93 
91 94 
91 95 
91 96 
91 97 
91 98 
91 105 
91 108 
91 117 
91 119 
91 130 
91 133 
91 143 
91 147 
91 161 
91 162 
91 169 
91 175 
91 184 
91 189 
92 93 
92 94 
92 95 
92 96 
92 97 
92 98 
92 105 
92 106 
92 113 
92 120 
92 134 
92 135 
92 144 
92 148 
92 159 
92 162 
92 170 
92 176 
92 190 
92 193 
93 94 
93 95 
93 96 
93 97 
93 98 
93 107 
93 109 
93 121 
93 122 
93 133 
93 135 
93 145 
93 149 
93 163 
93 167 
93 171 
93 177 
93 191 
93 196 
94 95 
94 96 
94 97 
94 98 
94 106 
94 108 
94 115 
94 122 
94 132 
94 136 
94 149 
94 150 
94 161 
94 164 
94 178 
94 182 
94 186 
94 192 
95 96 
95 97 
95 98 
95 104 
95 109 
95 121 
95 123 
95 134 
95 137 
95 151 
95 152 
95 165 
95 168 
95 172 
95 179 
95 185 
95 193 
96 97 
96 98 
96 103 
96 110 
96 119 
96 124 
96 138 
96 139 
96 146 
96 152 
96 164 
96 166 
96 176 
96 180 
96 183 
96 194 
97 98 
97 110 
97 111 
97 123 
97 125 
97 136 
97 139 
97 147 
97 153 
97 158 
97 167 
97 173 
97 181 
97 188 
97 195 
98 111 
98 112 
98 116 
98 126 
98 127 
98 140 
98 148 
98 154 
98 166 
98 168 
98 175 
98 182 
98 187 
98 196 
99 100 
99 101 
99 102 
99 103 
99 104 
99 105 
99 106 
99 107 
99 108 
99 109 
99 110 
99 111 
99 112 
99 113 
99 124 
99 127 
99 131 
99 141 
99 142 
99 155 
99 165 
99 169 
99 178 
99 183 
99 191 
100 101 
100 102 
100 103 
100 104 
100 105 
100 106 
100 107 
100 108 
100 109 
100 110 
100 111 
100 112 
100 114 
100 118 
100 128 
100 140 
100 142 
100 153 
100 156 
100 163 
100 170 
100 179 
100 184 
100 189 
101 102 
101 103 
101 104 
101 105 
101 106 
101 107 
101 108 
101 109 
101 110 
101 111 
101 112 
101 114 
101 115 
101 129 
101 137 
101 143 
101 154 
101 155 
101 157 
101 171 
101 180 
101 185 
101 195 
102 103 
102 104 
102 105 
102 106 
102 107 
102 108 
102 109 
102 110 
102 111 
102 112 
102 116 
102 126 
102 130 
102 138 
102 144 
102 151 
102 156 
102 158 
102 172 
102 177 
102 186 
102 190 
103 104 
103 105 
103 106 
103 107 
103 108 
103 109 
103 110 
103 111 
103 112 
103 117 
103 119 
103 131 
103 139 
103 145 
103 146 
103 159 
103 164 
103 173 
103 176 
103 183 
103 187 
104 105 
104 106 
104 107 
104 108 
104 109 
104 110 
104 111 
104 112 
104 118 
104 121 
104 132 
104 134 
104 146 
104 152 
104 160 
104 168 
104 172 
104 174 
104 185 
104 188 
105 106 
105 107 
105 108 
105 109 
105 110 
105 111 
105 112 
105 113 
105 119 
105 133 
105 135 
105 144 
105 147 
105 159 
105 161 
105 170 
105 175 
105 189 
105 193 
106 107 
106 108 
106 109 
106 110 
106 111 
106 112 
106 115 
106 120 
106 132 
106 134 
106 148 
106 149 
106 161 
106 162 
106 176 
106 182 
106 186 
106 190 
107 108 
107 109 
107 110 
107 111 
107 112 
107 121 
107 125 
107 128 
107 135 
107 149 
107 150 
107 157 
107 163 
107 174 
107 177 
107 191 
107 194 
108 109 
108 110 
108 111 
108 112 
108 117 
108 122 
108 130 
108 136 
108 143 
108 150 
108 162 
108 164 
108 169 
108 178 
108 184 
108 192 
109 110 
109 111 
109 112 
109 122 
109 123 
109 133 
109 137 
109 145 
109 151 
109 165 
109 167 
109 171 
109 179 
109 193 
109 196 
110 111 
110 112 
110 123 
110 124 
110 136 
110 138 
110 147 
110 152 
110 158 
110 166 
110 173 
110 180 
110 188 
110 194 
111 112 
111 116 
111 125 
111 127 
111 139 
111 148 
111 153 
111 166 
111 167 
111 175 
111 181 
111 187 
111 195 
112 120 
112 126 
112 129 
112 140 
112 141 
112 154 
112 160 
112 168 
112 181 
112 182 
112 192 
112 196 
113 114 
113 115 
113 116 
113 117 
113 118 
113 119 
113 120 
113 121 
113 122 
113 123 
113 124 
113 125 
113 126 
113 127 
113 135 
113 141 
113 144 
113 155 
113 159 
113 169 
113 170 
113 183 
113 193 
114 115 
114 116 
114 117 
114 118 
114 119 
114 120 
114 121 
114 122 
114 123 
114 124 
114 125 
114 126 
114 128 
114 137 
114 142 
114 154 
114 155 
114 156 
114 170 
114 180 
114 184 
114 195 
115 116 
115 117 
115 118 
115 119 
115 120 
115 121 
115 122 
115 123 
115 124 
115 125 
115 126 
115 129 
115 132 
115 143 
115 149 
115 157 
115 161 
115 171 
115 182 
115 185 
115 186 
116 117 
116 118 
116 119 
116 120 
116 121 
116 122 
116 123 
116 124 
116 125 
116 126 
116 127 
116 130 
116 144 
116 148 
116 158 
116 166 
116 172 
116 175 
116 186 
116 187 
117 118 
117 119 
117 120 
117 121 
117 122 
117 123 
117 124 
117 125 
117 126 
117 130 
117 131 
117 143 
117 145 
117 159 
117 162 
117 169 
117 173 
117 184 
117 187 
118 119 
118 120 
118 121 
118 122 
118 123 
118 124 
118 125 
118 126 
118 132 
118 140 
118 146 
118 153 
118 160 
118 163 
118 174 
118 179 
118 188 
118 189 
119 120 
119 121 
119 122 
119 123 
119 124 
119 125 
119 126 
119 133 
119 139 
119 146 
119 147 
119 161 
119 164 
119 175 
119 176 
119 183 
119 189 
120 121 
120 122 
120 123 
120 124 
120 125 
120 126 
120 129 
120 134 
120 141 
120 148 
120 160 
120 162 
120 176 
120 181 
120 190 
120 192 
121 122 
121 123 
121 124 
121 125 
121 126 
121 134 
121 135 
121 149 
121 152 
121 163 
121 168 
121 172 
121 177 
121 185 
121 191 
122 123 
122 124 
122 125 
122 126 
122 133 
122 136 
122 145 
122 150 
122 164 
122 167 
122 171 
122 178 
122 192 
122 196 
123 124 
123 125 
123 126 
123 136 
123 137 
123 147 
123 151 
123 158 
123 165 
123 173 
123 179 
123 188 
123 193 
124 125 
124 126 
124 131 
124 138 
124 142 
124 152 
124 165 
124 166 
124 178 
124 180 
124 191 
124 194 
125 126 
125 128 
125 139 
125 150 
125 153 
125 157 
125 167 
125 174 
125 181 
125 194 
125 195 
126 138 
126 140 
126 151 
126 154 
126 156 
126 168 
126 177 
126 182 
126 190 
126 196 
127 128 
127 129 
127 130 
127 131 
127 132 
127 133 
127 134 
127 135 
127 136 
127 137 
127 138 
127 139 
127 140 
127 141 
127 148 
127 155 
127 166 
127 169 
127 175 
127 183 
127 187 
128 129 
128 130 
128 131 
128 132 
128 133 
128 134 
128 135 
128 136 
128 137 
128 138 
128 139 
128 140 
128 142 
128 150 
128 156 
128 157 
128 170 
128 174 
128 184 
128 194 
129 130 
129 131 
129 132 
129 133 
129 134 
129 135 
129 136 
129 137 
129 138 
129 139 
129 140 
129 141 
129 143 
129 157 
129 160 
129 171 
129 181 
129 185 
129 192 
130 131 
130 132 
130 133 
130 134 
130 135 
130 136 
130 137 
130 138 
130 139 
130 140 
130 143 
130 144 
130 158 
130 162 
130 169 
130 172 
130 184 
130 186 
131 132 
131 133 
131 134 
131 135 
131 136 
131 137 
131 138 
131 139 
131 140 
131 142 
131 145 
131 159 
131 165 
131 173 
131 178 
131 187 
131 191 
132 133 
132 134 
132 135 
132 136 
132 137 
132 138 
132 139 
132 140 
132 146 
132 149 
132 160 
132 161 
132 174 
132 182 
132 186 
132 188 
133 134 
133 135 
133 136 
133 137 
133 138 
133 139 
133 140 
133 145 
133 147 
133 161 
133 167 
133 171 
133 175 
133 189 
133 196 
134 135 
134 136 
134 137 
134 138 
134 139 
134 140 
134 148 
134 152 
134 162 
134 168 
134 172 
134 176 
134 185 
134 190 
135 136 
135 137 
135 138 
135 139 
135 140 
135 144 
135 149 
135 159 
135 163 
135 170 
135 177 
135 191 
135 193 
136 137 
136 138 
136 139 
136 140 
136 147 
136 150 
136 158 
136 164 
136 173 
136 178 
136 188 
136 192 
137 138 
137 139 
137 140 
137 151 
137 154 
137 155 
137 165 
137 179 
137 180 
137 193 
137 195 
138 139 
138 140 
138 151 
138 152 
138 156 
138 166 
138 177 
138 180 
138 190 
138 194 
139 140 
139 146 
139 153 
139 164 
139 167 
139 176 
139 181 
139 183 
139 195 
140 153 
140 154 
140 163 
140 168 
140 179 
140 182 
140 189 
140 196 
141 142 
141 143 
141 144 
141 145 
141 146 
141 147 
141 148 
141 149 
141 150 
141 151 
141 152 
141 153 
141 154 
141 155 
141 160 
141 169 
141 181 
141 183 
141 192 
142 143 
142 144 
142 145 
142 146 
142 147 
142 148 
142 149 
142 150 
142 151 
142 152 
142 153 
142 154 
142 156 
142 165 
142 170 
142 178 
142 184 
142 191 
143 144 
143 145 
143 146 
143 147 
143 148 
143 149 
143 150 
143 151 
143 152 
143 153 
143 154 
143 157 
143 162 
143 169 
143 171 
143 184 
143 185 
144 145 
144 146 
144 147 
144 148 
144 149 
144 150 
144 151 
144 152 
144 153 
144 154 
144 158 
144 159 
144 170 
144 172 
144 186 
144 193 
145 146 
145 147 
145 148 
145 149 
145 150 
145 151 
145 152 
145 153 
145 154 
145 159 
145 167 
145 171 
145 173 
145 187 
145 196 
146 147 
146 148 
146 149 
146 150 
146 151 
146 152 
146 153 
146 154 
146 160 
146 164 
146 174 
146 176 
146 183 
146 188 
147 148 
147 149 
147 150 
147 151 
147 152 
147 153 
147 154 
147 158 
147 161 
147 173 
147 175 
147 188 
147 189 
148 149 
148 150 
148 151 
148 152 
148 153 
148 154 
148 162 
148 166 
148 175 
148 176 
148 187 
148 190 
149 150 
149 151 
149 152 
149 153 
149 154 
149 161 
149 163 
149 177 
149 182 
149 186 
149 191 
150 151 
150 152 
150 153 
150 154 
150 157 
150 164 
150 174 
150 178 
150 192 
150 194 
151 152 
151 153 
151 154 
151 156 
151 165 
151 177 
151 179 
151 190 
151 193 
152 153 
152 154 
152 166 
152 168 
152 172 
152 180 
152 185 
152 194 
153 154 
153 163 
153 167 
153 179 
153 181 
153 189 
153 195 
154 155 
154 168 
154 180 
154 182 
154 195 
154 196 
155 156 
155 157 
155 158 
155 159 
155 160 
155 161 
155 162 
155 163 
155 164 
155 165 
155 166 
155 167 
155 168 
155 169 
155 180 
155 183 
155 195 
156 157 
156 158 
156 159 
156 160 
156 161 
156 162 
156 163 
156 164 
156 165 
156 166 
156 167 
156 168 
156 170 
156 177 
156 184 
156 190 
157 158 
157 159 
157 160 
157 161 
157 162 
157 163 
157 164 
157 165 
157 166 
157 167 
157 168 
157 171 
157 174 
157 185 
157 194 
158 159 
158 160 
158 161 
158 162 
158 163 
158 164 
158 165 
158 166 
158 167 
158 168 
158 172 
158 173 
158 186 
158 188 
159 160 
159 161 
159 162 
159 163 
159 164 
159 165 
159 166 
159 167 
159 168 
159 170 
159 173 
159 187 
159 193 
160 161 
160 162 
160 163 
160 164 
160 165 
160 166 
160 167 
160 168 
160 174 
160 181 
160 188 
160 192 
161 162 
161 163 
161 164 
161 165 
161 166 
161 167 
161 168 
161 175 
161 182 
161 186 
161 189 
162 163 
162 164 
162 165 
162 166 
162 167 
162 168 
162 169 
162 176 
162 184 
162 190 
163 164 
163 165 
163 166 
163 167 
163 168 
163 177 
163 179 
163 189 
163 191 
164 165 
164 166 
164 167 
164 168 
164 176 
164 178 
164 183 
164 192 
165 166 
165 167 
165 168 
165 178 
165 179 
165 191 
165 193 
166 167 
166 168 
166 175 
166 180 
166 187 
166 194 
167 168 
167 171 
167 181 
167 195 
167 196 
168 172 
168 182 
168 185 
168 196 
169 170 
169 171 
169 172 
169 173 
169 174 
169 175 
169 176 
169 177 
169 178 
169 179 
169 180 
169 181 
169 182 
169 183 
169 184 
170 171 
170 172 
170 173 
170 174 
170 175 
170 176 
170 177 
170 178 
170 179 
170 180 
170 181 
170 182 
170 184 
170 193 
171 172 
171 173 
171 174 
171 175 
171 176 
171 177 
171 178 
171 179 
171 180 
171 181 
171 182 
171 185 
171 196 
172 173 
172 174 
172 175 
172 176 
172 177 
172 178 
172 179 
172 180 
172 181 
172 182 
172 185 
172 186 
173 174 
173 175 
173 176 
173 177 
173 178 
173 179 
173 180 
173 181 
173 182 
173 187 
173 188 
174 175 
174 176 
174 177 
174 178 
174 179 
174 180 
174 181 
174 182 
174 188 
174 194 
175 176 
175 177 
175 178 
175 179 
175 180 
175 181 
175 182 
175 187 
175 189 
176 177 
176 178 
176 179 
176 180 
176 181 
176 182 
176 183 
176 190 
177 178 
177 179 
177 180 
177 181 
177 182 
177 190 
177 191 
178 179 
178 180 
178 181 
178 182 
178 191 
178 192 
179 180 
179 181 
179 182 
179 189 
179 193 
180 181 
180 182 
180 194 
180 195 
181 182 
181 192 
181 195 
182 186 
182 196 
183 184 
183 185 
183 186 
183 187 
183 188 
183 189 
183 190 
183 191 
183 192 
183 193 
183 194 
183 195 
183 196 
184 185 
184 186 
184 187 
184 188 
184 189 
184 190 
184 191 
184 192 
184 193 
184 194 
184 195 
184 196 
185 186 
185 187 
185 188 
185 189 
185 190 
185 191 
185 192 
185 193 
185 194 
185 195 
185 196 
186 187 
186 188 
186 189 
186 190 
186 191 
186 192 
186 193 
186 194 
186 195 
186 196 
187 188 
187 189 
187 190 
187 191 
187 192 
187 193 
187 194 
187 195 
187 196 
188 189 
188 190 
188 191 
188 192 
188 193 
188 194 
188 195 
188 196 
189 190 
189 191 
189 192 
189 193 
189 194 
189 195 
189 196 
190 191 
190 192 
190 193 
190 194 
190 195 
190 196 
191 192 
191 193 
191 194 
191 195 
191 196 
192 193 
192 194 
192 195 
192 196 
193 194 
193 195 
193 196 
194 195 
194 196 
195 196 
